SAT problem/sat_in/bonus/34.wcnf
p wcnf 10 38 261
261 1 2 0
261 1 3 0
261 1 5 0
261 1 7 0
261 1 8 0
261 2 3 0
261 2 4 0
261 2 5 0
261 2 6 0
261 2 7 0
261 2 8 0
261 3 6 0
261 3 7 0
261 3 8 0
261 3 9 0
261 4 5 0
261 4 6 0
261 4 8 0
261 4 9 0
261 4 10 0
261 5 6 0
261 5 7 0
261 5 10 0
261 6 7 0
261 7 8 0
261 7 10 0
261 8 10 0
261 9 10 0
23 -1 0
21 -2 0
22 -3 0
22 -4 0
22 -5 0
23 -6 0
21 -7 0
22 -8 0
25 -9 0
23 -10 0
