SAT problem/sat_in/task3/34.cnf
p cnf 30 201
4 7 11 16 22 29 37 46 56 67 0
8 12 17 23 30 38 47 57 68 80 0
13 18 24 31 39 48 58 69 81 94 0
-4 -8 0
-7 -12 0
-11 -17 0
-16 -23 0
-22 -30 0
-29 -38 0
-37 -47 0
-46 -57 0
-56 -68 0
-67 -80 0
-4 -13 0
-7 -18 0
-11 -24 0
-16 -31 0
-22 -39 0
-29 -48 0
-37 -58 0
-46 -69 0
-56 -81 0
-67 -94 0
-8 -13 0
-12 -18 0
-17 -24 0
-23 -31 0
-30 -39 0
-38 -48 0
-47 -58 0
-57 -69 0
-68 -81 0
-80 -94 0
-4 -12 0
-4 -17 0
-4 -30 0
-4 -47 0
-4 -57 0
-7 -17 0
-7 -23 0
-7 -30 0
-7 -38 0
-7 -47 0
-7 -57 0
-11 -38 0
-11 -47 0
-11 -57 0
-11 -68 0
-16 -30 0
-16 -38 0
-16 -57 0
-16 -68 0
-16 -80 0
-22 -38 0
-22 -47 0
-22 -80 0
-29 -47 0
-37 -57 0
-37 -80 0
-46 -80 0
-56 -80 0
-4 -18 0
-4 -24 0
-4 -39 0
-4 -58 0
-4 -69 0
-7 -24 0
-7 -31 0
-7 -39 0
-7 -48 0
-7 -58 0
-7 -69 0
-11 -48 0
-11 -58 0
-11 -69 0
-11 -81 0
-16 -39 0
-16 -48 0
-16 -69 0
-16 -81 0
-16 -94 0
-22 -48 0
-22 -58 0
-22 -94 0
-29 -58 0
-37 -69 0
-37 -94 0
-46 -94 0
-56 -94 0
-8 -7 0
-8 -11 0
-8 -22 0
-8 -37 0
-8 -46 0
-12 -11 0
-12 -16 0
-12 -22 0
-12 -29 0
-12 -37 0
-12 -46 0
-17 -29 0
-17 -37 0
-17 -46 0
-17 -56 0
-23 -22 0
-23 -29 0
-23 -46 0
-23 -56 0
-23 -67 0
-30 -29 0
-30 -37 0
-30 -67 0
-38 -37 0
-47 -46 0
-47 -67 0
-57 -67 0
-68 -67 0
-8 -18 0
-8 -24 0
-8 -39 0
-8 -58 0
-8 -69 0
-12 -24 0
-12 -31 0
-12 -39 0
-12 -48 0
-12 -58 0
-12 -69 0
-17 -48 0
-17 -58 0
-17 -69 0
-17 -81 0
-23 -39 0
-23 -48 0
-23 -69 0
-23 -81 0
-23 -94 0
-30 -48 0
-30 -58 0
-30 -94 0
-38 -58 0
-47 -69 0
-47 -94 0
-57 -94 0
-68 -94 0
-13 -7 0
-13 -11 0
-13 -22 0
-13 -37 0
-13 -46 0
-18 -11 0
-18 -16 0
-18 -22 0
-18 -29 0
-18 -37 0
-18 -46 0
-24 -29 0
-24 -37 0
-24 -46 0
-24 -56 0
-31 -22 0
-31 -29 0
-31 -46 0
-31 -56 0
-31 -67 0
-39 -29 0
-39 -37 0
-39 -67 0
-48 -37 0
-58 -46 0
-58 -67 0
-69 -67 0
-81 -67 0
-13 -12 0
-13 -17 0
-13 -30 0
-13 -47 0
-13 -57 0
-18 -17 0
-18 -23 0
-18 -30 0
-18 -38 0
-18 -47 0
-18 -57 0
-24 -38 0
-24 -47 0
-24 -57 0
-24 -68 0
-31 -30 0
-31 -38 0
-31 -57 0
-31 -68 0
-31 -80 0
-39 -38 0
-39 -47 0
-39 -80 0
-48 -47 0
-58 -57 0
-58 -80 0
-69 -80 0
-81 -80 0
